NAME: bip_60_2
TYPE: TSP
COMMENT: bip_60_2
DIMENSION: 60
EDGE_WEIGHT_TYPE: EUC_2D
NODE_COORD_SECTION
1 77 27
2 92 42
3 30 35
4 1 47
5 50 73
6 58 70
7 52 5
8 77 3
9 11 0
10 30 84
11 41 61
12 86 12
13 3 8
14 82 52
15 42 28
16 41 50
17 55 0
18 33 54
19 47 52
20 15 55
21 8 35
22 83 30
23 36 53
24 91 69
25 68 16
26 22 99
27 15 63
28 69 60
29 99 92
30 33 63
31 417 491
32 483 426
33 443 441
34 472 487
35 447 435
36 428 465
37 439 466
38 423 474
39 432 422
40 498 499
41 423 491
42 405 406
43 426 488
44 452 464
45 416 492
46 472 435
47 409 433
48 455 424
49 471 484
50 433 425
51 479 440
52 423 435
53 447 451
54 455 488
55 439 438
56 469 481
57 428 455
58 400 423
59 451 412
60 497 494
